# ORCA input file used to generate the files needed for the MEP calculation.
! bp86 def2-svp keepdens xyzfile

* xyz 0 1
O          0.00000        0.00000        0.11779
H          0.00000        0.75545       -0.47116
H          0.00000       -0.75545       -0.47116
*